Welcome to the CBC MILP Solver 
Version: Trunk
Build Date: Apr 16 2020 

Starting solution of the Linear programming relaxation problem using Primal Simplex

Using Python-MIP package version 1.8.1
Machines:  4 Jobs:  4
Order: 
Job  0 : machine 0 ( 10 ) machine 3 ( 1 ) machine 2 ( 6 ) machine 1 ( 7 ) 
Job  1 : machine 0 ( 1 ) machine 3 ( 7 ) machine 1 ( 5 ) machine 2 ( 8 ) 
Job  2 : machine 3 ( 9 ) machine 2 ( 3 ) machine 1 ( 7 ) machine 0 ( 1 ) 
Job  3 : machine 1 ( 7 ) machine 3 ( 3 ) machine 0 ( 9 ) machine 2 ( 10 ) 
K:  44
Job  0 , e: machine  0 ( 0 ) machine  1 ( 17 ) machine  2 ( 11 ) machine  3 ( 10 ) 
Job  1 , e: machine  0 ( 0 ) machine  1 ( 8 ) machine  2 ( 13 ) machine  3 ( 1 ) 
Job  2 , e: machine  0 ( 19 ) machine  1 ( 12 ) machine  2 ( 9 ) machine  3 ( 0 ) 
Job  3 , e: machine  0 ( 10 ) machine  1 ( 0 ) machine  2 ( 19 ) machine  3 ( 7 ) 
Job  0 , f: machine  0 ( 14 ) machine  1 ( 0 ) machine  2 ( 7 ) machine  3 ( 13 ) 
Job  1 , f: machine  0 ( 20 ) machine  1 ( 8 ) machine  2 ( 0 ) machine  3 ( 13 ) 
Job  2 , f: machine  0 ( 0 ) machine  1 ( 1 ) machine  2 ( 8 ) machine  3 ( 11 ) 
Job  3 , f: machine  0 ( 10 ) machine  1 ( 22 ) machine  2 ( 0 ) machine  3 ( 19 ) 
EST and LST:
Job: 0 Machine: 0 EST: 0 LST: 20
Job: 0 Machine: 1 EST: 17 LST: 37
Job: 0 Machine: 2 EST: 11 LST: 31
Job: 0 Machine: 3 EST: 10 LST: 30
Job: 1 Machine: 0 EST: 0 LST: 23
Job: 1 Machine: 1 EST: 8 LST: 31
Job: 1 Machine: 2 EST: 13 LST: 36
Job: 1 Machine: 3 EST: 1 LST: 24
Job: 2 Machine: 0 EST: 19 LST: 43
Job: 2 Machine: 1 EST: 12 LST: 36
Job: 2 Machine: 2 EST: 9 LST: 33
Job: 2 Machine: 3 EST: 0 LST: 24
Job: 3 Machine: 0 EST: 10 LST: 25
Job: 3 Machine: 1 EST: 0 LST: 15
Job: 3 Machine: 2 EST: 19 LST: 34
Job: 3 Machine: 3 EST: 7 LST: 22
Order:
Job: 0 Machine: 0 = 0 
Job: 0 Machine: 1 = 3 
Job: 0 Machine: 2 = 2 
Job: 0 Machine: 3 = 1 
Job: 1 Machine: 0 = 0 
Job: 1 Machine: 1 = 2 
Job: 1 Machine: 2 = 3 
Job: 1 Machine: 3 = 1 
Job: 2 Machine: 0 = 3 
Job: 2 Machine: 1 = 2 
Job: 2 Machine: 2 = 1 
Job: 2 Machine: 3 = 0 
Job: 3 Machine: 0 = 2 
Job: 3 Machine: 1 = 0 
Job: 3 Machine: 2 = 3 
Job: 3 Machine: 3 = 1 
Distances:
Job 0, Machine 0 -> Machine 3: distance 10
Job 0, Machine 0 -> Machine 2: distance 11
Job 0, Machine 0 -> Machine 1: distance 17
Job 0, Machine 3 -> Machine 2: distance 1
Job 0, Machine 3 -> Machine 1: distance 7
Job 0, Machine 2 -> Machine 1: distance 6
Job 1, Machine 0 -> Machine 3: distance 1
Job 1, Machine 0 -> Machine 1: distance 8
Job 1, Machine 0 -> Machine 2: distance 13
Job 1, Machine 3 -> Machine 1: distance 7
Job 1, Machine 3 -> Machine 2: distance 12
Job 1, Machine 1 -> Machine 2: distance 5
Job 2, Machine 3 -> Machine 2: distance 9
Job 2, Machine 3 -> Machine 1: distance 12
Job 2, Machine 3 -> Machine 0: distance 19
Job 2, Machine 2 -> Machine 1: distance 3
Job 2, Machine 2 -> Machine 0: distance 10
Job 2, Machine 1 -> Machine 0: distance 7
Job 3, Machine 1 -> Machine 3: distance 7
Job 3, Machine 1 -> Machine 0: distance 10
Job 3, Machine 1 -> Machine 2: distance 19
Job 3, Machine 3 -> Machine 0: distance 3
Job 3, Machine 3 -> Machine 2: distance 12
Job 3, Machine 0 -> Machine 2: distance 9
McCormic linearization
[(0, 1), (0, 0), (3, 0), (3, 1), (2, 1), (2, 0), (1, 0), (1, 1)]
obj:  0.5999999999999999
solutions:  1
+ x(0,0) + 0.09999999999999998x(1,0) 
C:  28.999999999999996
x(0,0) = 0.20	 x(0,1) = 19.00	 x(0,2) = 13.00	 x(0,3) = 10.20	 
x(1,0) = 8.00	 x(1,1) = 16.00	 x(1,2) = 21.00	 x(1,3) = 9.00	 
x(2,0) = 20.20	 x(2,1) = 13.20	 x(2,2) = 10.20	 x(2,3) = 1.20	 
x(3,0) = 10.00	 x(3,1) = 0.00	 x(3,2) = 19.00	 x(3,3) = 7.00	 
y(0,1,0) = 0.37	 y(1,0,0) = 0.63	 
y(0,2,0) = 0.48	 y(2,0,0) = 0.52	 
y(0,3,0) = 0.99	 y(3,0,0) = 0.01	 
y(1,2,0) = 0.30	 y(2,1,0) = 0.70	 
y(1,3,0) = 0.96	 y(3,1,0) = 0.04	 
y(2,3,0) = 0.00	 y(3,2,0) = 1.00	 
y(0,1,1) = 0.48	 y(1,0,1) = 0.52	 
y(0,2,1) = 0.05	 y(2,0,1) = 0.95	 
y(0,3,1) = 0.00	 y(3,0,1) = 1.00	 
y(1,2,1) = 0.12	 y(2,1,1) = 0.88	 
y(1,3,1) = 0.38	 y(3,1,1) = 0.62	 
y(2,3,1) = 0.00	 y(3,2,1) = 1.00	 
y(0,1,2) = 0.48	 y(1,0,2) = 0.52	 
y(0,2,2) = 0.44	 y(2,0,2) = 0.56	 
y(0,3,2) = 1.00	 y(3,0,2) = 0.00	 
y(1,2,2) = 0.00	 y(2,1,2) = 1.00	 
y(1,3,2) = 0.26	 y(3,1,2) = 0.74	 
y(2,3,2) = 0.74	 y(3,2,2) = 0.26	 
y(0,1,3) = 0.28	 y(1,0,3) = 0.72	 
y(0,2,3) = 0.00	 y(2,0,3) = 1.00	 
y(0,3,3) = 0.01	 y(3,0,3) = 0.99	 
y(1,2,3) = 0.04	 y(2,1,3) = 0.96	 
y(1,3,3) = 0.04	 y(3,1,3) = 0.96	 
y(2,3,3) = 0.35	 y(3,2,3) = 0.65	 
obj:  0.7899005756148612
solutions:  1
+ 0.006122448979591839x(1,3) + 0.10010465724751438x(3,3) + 0.01459968602825745x(2,3) + 0.00162218733647305x(0,3) 
[(1, 2), (1, 3), (3, 3), (0, 2), (3, 1), (2, 3), (2, 2), (0, 3), (1, 1)]
cliques:  1 mip: 72
C:  30.41727092946555
x(0,0) = 1.00	 x(0,1) = 23.42	 x(0,2) = 17.42	 x(0,3) = 16.42	 
x(1,0) = -0.00	 x(1,1) = 8.00	 x(1,2) = 13.00	 x(1,3) = 1.00	 
x(2,0) = 29.42	 x(2,1) = 22.42	 x(2,2) = 19.42	 x(2,3) = 10.42	 
x(3,0) = 11.14	 x(3,1) = 0.00	 x(3,2) = 20.14	 x(3,3) = 8.14	 
y(0,1,0) = 0.00	 y(1,0,0) = 1.00	 
y(0,2,0) = 0.67	 y(2,0,0) = 0.33	 
y(0,3,0) = 0.99	 y(3,0,0) = 0.01	 
y(1,2,0) = 0.69	 y(2,1,0) = 0.31	 
y(1,3,0) = 0.59	 y(3,1,0) = 0.41	 
y(2,3,0) = 0.00	 y(3,2,0) = 1.00	 
y(0,1,1) = 0.11	 y(1,0,1) = 0.89	 
y(0,2,1) = 0.23	 y(2,0,1) = 0.77	 
y(0,3,1) = 0.00	 y(3,0,1) = 1.00	 
y(1,2,1) = 0.61	 y(2,1,1) = 0.39	 
y(1,3,1) = 0.04	 y(3,1,1) = 0.96	 
y(2,3,1) = 0.00	 y(3,2,1) = 1.00	 
y(0,1,2) = 0.11	 y(1,0,2) = 0.89	 
y(0,2,2) = 0.38	 y(2,0,2) = 0.62	 
y(0,3,2) = 0.73	 y(3,0,2) = 0.27	 
y(1,2,2) = 0.41	 y(2,1,2) = 0.59	 
y(1,3,2) = 0.97	 y(3,1,2) = 0.03	 
y(2,3,2) = 0.87	 y(3,2,2) = 0.13	 
y(0,1,3) = 0.00	 y(1,0,3) = 1.00	 
y(0,2,3) = 0.43	 y(2,0,3) = 0.57	 
y(0,3,3) = 0.26	 y(3,0,3) = 0.74	 
y(1,2,3) = 0.58	 y(2,1,3) = 0.42	 
y(1,3,3) = 0.99	 y(3,1,3) = 0.01	 
y(2,3,3) = 0.03	 y(3,2,3) = 0.97	 
obj:  0.9449301360535328
solutions:  1
+ 0.06229508196721313x(1,3) + 0.019672131147540982x(3,3) + 0.05901639344262295x(2,3) + 0.006557377049180323x(0,3) 
[(1, 3), (0, 0), (3, 3), (3, 0), (2, 0), (2, 3), (1, 0), (0, 3)]
cliques:  1 mip: 115
C:  31.29089692744349
x(0,0) = 0.93	 x(0,1) = 18.04	 x(0,2) = 11.93	 x(0,3) = 10.93	 
x(1,0) = 0.74	 x(1,1) = 8.74	 x(1,2) = 13.74	 x(1,3) = 1.74	 
x(2,0) = 30.29	 x(2,1) = 22.89	 x(2,2) = 19.89	 x(2,3) = 10.89	 
x(3,0) = 12.02	 x(3,1) = 1.74	 x(3,2) = 21.08	 x(3,3) = 9.02	 
y(0,1,0) = 0.03	 y(1,0,0) = 0.97	 
y(0,2,0) = 1.00	 y(2,0,0) = -0.00	 
y(0,3,0) = 0.99	 y(3,0,0) = 0.01	 
y(1,2,0) = 0.98	 y(2,1,0) = 0.02	 
y(1,3,0) = 0.96	 y(3,1,0) = 0.04	 
y(2,3,0) = 0.00	 y(3,2,0) = 1.00	 
y(0,1,1) = 0.01	 y(1,0,1) = 0.99	 
y(0,2,1) = 0.93	 y(2,0,1) = 0.07	 
y(0,3,1) = 0.00	 y(3,0,1) = 1.00	 
y(1,2,1) = 1.00	 y(2,1,1) = 0.00	 
y(1,3,1) = 0.00	 y(3,1,1) = 1.00	 
y(2,3,1) = 0.00	 y(3,2,1) = 1.00	 
y(0,1,2) = 0.83	 y(1,0,2) = 0.17	 
y(0,2,2) = 0.44	 y(2,0,2) = 0.56	 
y(0,3,2) = 1.00	 y(3,0,2) = 0.00	 
y(1,2,2) = 0.90	 y(2,1,2) = 0.10	 
y(1,3,2) = 0.97	 y(3,1,2) = 0.03	 
y(2,3,2) = 0.32	 y(3,2,2) = 0.68	 
y(0,1,3) = 0.00	 y(1,0,3) = 1.00	 
y(0,2,3) = 0.39	 y(2,0,3) = 0.61	 
y(0,3,3) = 0.07	 y(3,0,3) = 0.93	 
y(1,2,3) = 0.95	 y(2,1,3) = 0.05	 
y(1,3,3) = 1.00	 y(3,1,3) = 0.00	 
y(2,3,3) = 0.58	 y(3,2,3) = 0.42	 
obj:  0.8077713692841206
solutions:  1
+ 0.014411446806320453x(1,2) + 0.02264655926707499x(3,2) + 0.0020073086623089067x(1,3) + 0.010808585104740333x(0,2) 
[(1, 2), (3, 2), (1, 3), (3, 3), (2, 3), (2, 2), (0, 3), (0, 2)]
cliques:  1 mip: 119
C:  33.171402927467156
x(0,0) = 0.90	 x(0,1) = 26.17	 x(0,2) = 20.17	 x(0,3) = 18.06	 
x(1,0) = 0.98	 x(1,1) = 15.76	 x(1,2) = 20.76	 x(1,3) = 8.76	 
x(2,0) = 32.17	 x(2,1) = 23.33	 x(2,2) = 20.33	 x(2,3) = 11.33	 
x(3,0) = 11.54	 x(3,1) = 1.54	 x(3,2) = 20.54	 x(3,3) = 8.54	 
y(0,1,0) = 0.04	 y(1,0,0) = 0.96	 
y(0,2,0) = 0.98	 y(2,0,0) = 0.02	 
y(0,3,0) = 1.00	 y(3,0,0) = 0.00	 
y(1,2,0) = 0.81	 y(2,1,0) = 0.19	 
y(1,3,0) = 0.58	 y(3,1,0) = 0.42	 
y(2,3,0) = 0.00	 y(3,2,0) = 1.00	 
y(0,1,1) = 0.08	 y(1,0,1) = 0.92	 
y(0,2,1) = 0.69	 y(2,0,1) = 0.31	 
y(0,3,1) = 0.00	 y(3,0,1) = 1.00	 
y(1,2,1) = 1.00	 y(2,1,1) = 0.00	 
y(1,3,1) = 0.00	 y(3,1,1) = 1.00	 
y(2,3,1) = 0.00	 y(3,2,1) = 1.00	 
y(0,1,2) = 0.77	 y(1,0,2) = 0.23	 
y(0,2,2) = 0.18	 y(2,0,2) = 0.82	 
y(0,3,2) = 0.69	 y(3,0,2) = 0.31	 
y(1,2,2) = 0.20	 y(2,1,2) = 0.80	 
y(1,3,2) = 0.67	 y(3,1,2) = 0.33	 
y(2,3,2) = 0.71	 y(3,2,2) = 0.29	 
y(0,1,3) = 0.00	 y(1,0,3) = 1.00	 
y(0,2,3) = 0.10	 y(2,0,3) = 0.90	 
y(0,3,3) = 0.00	 y(3,0,3) = 1.00	 
y(1,2,3) = 0.59	 y(2,1,3) = 0.41	 
y(1,3,3) = 0.70	 y(3,1,3) = 0.30	 
y(2,3,3) = 0.26	 y(3,2,3) = 0.74	 
obj:  1.0000000000000004
erro
[(0, 0), (1, 3), (3, 3), (3, 0), (2, 0), (2, 3), (1, 0), (0, 3)]
cliques:  0 mip: 138
C:  34.0
x(0,0) = 0.71	 x(0,1) = 22.28	 x(0,2) = 16.28	 x(0,3) = 15.28	 
x(1,0) = 2.93	 x(1,1) = 15.28	 x(1,2) = 25.31	 x(1,3) = 8.28	 
x(2,0) = 33.00	 x(2,1) = 23.54	 x(2,2) = 20.54	 x(2,3) = 11.54	 
x(3,0) = 10.55	 x(3,1) = 0.55	 x(3,2) = 19.55	 x(3,3) = 7.55	 
y(0,1,0) = 0.13	 y(1,0,0) = 0.87	 
y(0,2,0) = 0.99	 y(2,0,0) = 0.01	 
y(0,3,0) = 0.99	 y(3,0,0) = 0.01	 
y(1,2,0) = 0.82	 y(2,1,0) = 0.18	 
y(1,3,0) = 0.59	 y(3,1,0) = 0.41	 
y(2,3,0) = 0.00	 y(3,2,0) = 1.00	 
y(0,1,1) = 0.00	 y(1,0,1) = 1.00	 
y(0,2,1) = 0.59	 y(2,0,1) = 0.41	 
y(0,3,1) = 0.00	 y(3,0,1) = 1.00	 
y(1,2,1) = 1.00	 y(2,1,1) = 0.00	 
y(1,3,1) = 0.00	 y(3,1,1) = 1.00	 
y(2,3,1) = 0.00	 y(3,2,1) = 1.00	 
y(0,1,2) = 0.93	 y(1,0,2) = 0.07	 
y(0,2,2) = 0.44	 y(2,0,2) = 0.56	 
y(0,3,2) = 0.54	 y(3,0,2) = 0.46	 
y(1,2,2) = 0.00	 y(2,1,2) = 1.00	 
y(1,3,2) = 0.45	 y(3,1,2) = 0.55	 
y(2,3,2) = 0.58	 y(3,2,2) = 0.42	 
y(0,1,3) = 0.00	 y(1,0,3) = 1.00	 
y(0,2,3) = 0.35	 y(2,0,3) = 0.65	 
y(0,3,3) = 0.00	 y(3,0,3) = 1.00	 
y(1,2,3) = 0.58	 y(2,1,3) = 0.42	 
y(1,3,3) = 0.68	 y(3,1,3) = 0.32	 
y(2,3,3) = 0.26	 y(3,2,3) = 0.74	 
obj:  0.9630366533588963
solutions:  1
+ 0.09174311926604951x(0,0) + 0.0825688073394494x(3,0) + 0.00917431192660566x(1,0) 
[(3, 2), (0, 0), (1, 3), (3, 3), (3, 0), (1, 0), (2, 3), (0, 3), (0, 2)]
cliques:  1 mip: 97
C:  34.0
x(0,0) = 2.32	 x(0,1) = 24.36	 x(0,2) = 18.36	 x(0,3) = 12.32	 
x(1,0) = 1.32	 x(1,1) = 14.22	 x(1,2) = 19.44	 x(1,3) = 7.22	 
x(2,0) = 30.53	 x(2,1) = 21.98	 x(2,2) = 18.98	 x(2,3) = 9.98	 
x(3,0) = 13.38	 x(3,1) = 1.48	 x(3,2) = 22.38	 x(3,3) = 8.48	 
y(0,1,0) = 0.00	 y(1,0,0) = 1.00	 
y(0,2,0) = 0.87	 y(2,0,0) = 0.13	 
y(0,3,0) = 1.00	 y(3,0,0) = 0.00	 
y(1,2,0) = 0.79	 y(2,1,0) = 0.21	 
y(1,3,0) = 0.66	 y(3,1,0) = 0.34	 
y(2,3,0) = 0.00	 y(3,2,0) = 1.00	 
y(0,1,1) = 0.13	 y(1,0,1) = 0.87	 
y(0,2,1) = 0.33	 y(2,0,1) = 0.67	 
y(0,3,1) = 0.00	 y(3,0,1) = 1.00	 
y(1,2,1) = 1.00	 y(2,1,1) = 0.00	 
y(1,3,1) = 0.00	 y(3,1,1) = 1.00	 
y(2,3,1) = 0.00	 y(3,2,1) = 1.00	 
y(0,1,2) = 0.46	 y(1,0,2) = 0.54	 
y(0,2,2) = 0.17	 y(2,0,2) = 0.83	 
y(0,3,2) = 0.65	 y(3,0,2) = 0.35	 
y(1,2,2) = 0.11	 y(2,1,2) = 0.89	 
y(1,3,2) = 0.80	 y(3,1,2) = 0.20	 
y(2,3,2) = 0.93	 y(3,2,2) = 0.07	 
y(0,1,3) = 0.09	 y(1,0,3) = 0.91	 
y(0,2,3) = 0.29	 y(2,0,3) = 0.71	 
y(0,3,3) = 0.00	 y(3,0,3) = 1.00	 
y(1,2,3) = 0.59	 y(2,1,3) = 0.41	 
y(1,3,3) = 0.76	 y(3,1,3) = 0.24	 
y(2,3,3) = 0.43	 y(3,2,3) = 0.57	 
obj:  1.0591117650435005
erro
[(1, 2), (1, 3), (3, 3), (0, 2), (3, 1), (2, 3), (2, 2), (0, 3), (1, 1)]
cliques:  0 mip: 104
C:  34.0
x(0,0) = 1.32	 x(0,1) = 26.56	 x(0,2) = 19.61	 x(0,3) = 12.34	 
x(1,0) = 3.30	 x(1,1) = 13.11	 x(1,2) = 18.11	 x(1,3) = 6.11	 
x(2,0) = 32.04	 x(2,1) = 20.33	 x(2,2) = 17.12	 x(2,3) = 7.48	 
x(3,0) = 11.32	 x(3,1) = 1.32	 x(3,2) = 23.01	 x(3,3) = 8.32	 
y(0,1,0) = 0.39	 y(1,0,0) = 0.61	 
y(0,2,0) = 0.94	 y(2,0,0) = 0.06	 
y(0,3,0) = 1.00	 y(3,0,0) = 0.00	 
y(1,2,0) = 0.88	 y(2,1,0) = 0.12	 
y(1,3,0) = 0.71	 y(3,1,0) = 0.29	 
y(2,3,0) = 0.00	 y(3,2,0) = 1.00	 
y(0,1,1) = 0.20	 y(1,0,1) = 0.80	 
y(0,2,1) = 0.06	 y(2,0,1) = 0.94	 
y(0,3,1) = 0.00	 y(3,0,1) = 1.00	 
y(1,2,1) = 1.00	 y(2,1,1) = 0.00	 
y(1,3,1) = 0.00	 y(3,1,1) = 1.00	 
y(2,3,1) = 0.00	 y(3,2,1) = 1.00	 
y(0,1,2) = 0.42	 y(1,0,2) = 0.58	 
y(0,2,2) = 0.02	 y(2,0,2) = 0.98	 
y(0,3,2) = 0.58	 y(3,0,2) = 0.42	 
y(1,2,2) = 0.09	 y(2,1,2) = 0.91	 
y(1,3,2) = 0.88	 y(3,1,2) = 0.12	 
y(2,3,2) = 0.96	 y(3,2,2) = 0.04	 
y(0,1,3) = 0.08	 y(1,0,3) = 0.92	 
y(0,2,3) = 0.20	 y(2,0,3) = 0.80	 
y(0,3,3) = 0.00	 y(3,0,3) = 1.00	 
y(1,2,3) = 0.60	 y(2,1,3) = 0.40	 
y(1,3,3) = 0.80	 y(3,1,3) = 0.20	 
y(2,3,3) = 0.69	 y(3,2,3) = 0.31	 
obj:  0.9999999999999999
erro
[(1, 2), (1, 3), (3, 3), (0, 2), (3, 1), (2, 3), (2, 2), (0, 3), (1, 1)]
cliques:  0 mip: 68
C:  34.00000000000001
x(0,0) = 2.91	 x(0,1) = 26.21	 x(0,2) = 20.21	 x(0,3) = 13.63	 
x(1,0) = 3.84	 x(1,1) = 12.84	 x(1,2) = 17.84	 x(1,3) = 4.84	 
x(2,0) = 32.53	 x(2,1) = 20.59	 x(2,2) = 16.82	 x(2,3) = 7.53	 
x(3,0) = 11.37	 x(3,1) = 1.37	 x(3,2) = 22.95	 x(3,3) = 8.37	 
y(0,1,0) = 0.49	 y(1,0,0) = 0.51	 
y(0,2,0) = 0.91	 y(2,0,0) = 0.09	 
y(0,3,0) = 0.53	 y(3,0,0) = 0.47	 
y(1,2,0) = 0.92	 y(2,1,0) = 0.08	 
y(1,3,0) = 0.77	 y(3,1,0) = 0.23	 
y(2,3,0) = 0.00	 y(3,2,0) = 1.00	 
y(0,1,1) = 0.43	 y(1,0,1) = 0.57	 
y(0,2,1) = 0.10	 y(2,0,1) = 0.90	 
y(0,3,1) = 0.00	 y(3,0,1) = 1.00	 
y(1,2,1) = 1.00	 y(2,1,1) = 0.00	 
y(1,3,1) = 0.00	 y(3,1,1) = 1.00	 
y(2,3,1) = 0.00	 y(3,2,1) = 1.00	 
y(0,1,2) = 0.37	 y(1,0,2) = 0.63	 
y(0,2,2) = 0.02	 y(2,0,2) = 0.98	 
y(0,3,2) = 0.51	 y(3,0,2) = 0.49	 
y(1,2,2) = 0.09	 y(2,1,2) = 0.91	 
y(1,3,2) = 0.88	 y(3,1,2) = 0.12	 
y(2,3,2) = 0.99	 y(3,2,2) = 0.01	 
y(0,1,3) = 0.00	 y(1,0,3) = 1.00	 
y(0,2,3) = 0.17	 y(2,0,3) = 0.83	 
y(0,3,3) = 0.00	 y(3,0,3) = 1.00	 
y(1,2,3) = 0.62	 y(2,1,3) = 0.38	 
y(1,3,3) = 0.86	 y(3,1,3) = 0.14	 
y(2,3,3) = 0.69	 y(3,2,3) = 0.31	 
obj:  1.0627135874763578
erro
[(3, 0), (2, 0), (1, 0), (0, 0)]
cliques:  0 mip: 114
C:  34.00000000000001
x(0,0) = 3.76	 x(0,1) = 27.00	 x(0,2) = 19.36	 x(0,3) = 14.30	 
x(1,0) = 4.50	 x(1,1) = 12.50	 x(1,2) = 17.50	 x(1,3) = 5.50	 
x(2,0) = 32.11	 x(2,1) = 20.00	 x(2,2) = 16.96	 x(2,3) = 7.96	 
x(3,0) = 14.30	 x(3,1) = 4.30	 x(3,2) = 23.30	 x(3,3) = 11.30	 
y(0,1,0) = 0.69	 y(1,0,0) = 0.31	 
y(0,2,0) = 0.89	 y(2,0,0) = 0.11	 
y(0,3,0) = 0.92	 y(3,0,0) = 0.08	 
y(1,2,0) = 1.00	 y(2,1,0) = -0.00	 
y(1,3,0) = 0.75	 y(3,1,0) = 0.25	 
y(2,3,0) = 0.00	 y(3,2,0) = 1.00	 
y(0,1,1) = 0.40	 y(1,0,1) = 0.60	 
y(0,2,1) = -0.00	 y(2,0,1) = 1.00	 
y(0,3,1) = 0.00	 y(3,0,1) = 1.00	 
y(1,2,1) = 1.00	 y(2,1,1) = 0.00	 
y(1,3,1) = 0.00	 y(3,1,1) = 1.00	 
y(2,3,1) = 0.00	 y(3,2,1) = 1.00	 
y(0,1,2) = 0.50	 y(1,0,2) = 0.50	 
y(0,2,2) = 0.08	 y(2,0,2) = 0.92	 
y(0,3,2) = 0.63	 y(3,0,2) = 0.37	 
y(1,2,2) = 0.31	 y(2,1,2) = 0.69	 
y(1,3,2) = 0.91	 y(3,1,2) = 0.09	 
y(2,3,2) = 0.99	 y(3,2,2) = 0.01	 
y(0,1,3) = 0.00	 y(1,0,3) = 1.00	 
y(0,2,3) = 0.19	 y(2,0,3) = 0.81	 
y(0,3,3) = 0.00	 y(3,0,3) = 1.00	 
y(1,2,3) = 0.58	 y(2,1,3) = 0.42	 
y(1,3,3) = 0.37	 y(3,1,3) = 0.63	 
y(2,3,3) = 0.61	 y(3,2,3) = 0.39	 
obj:  1.1157972912355407
erro
[(1, 2), (1, 3), (3, 3), (0, 2), (3, 1), (2, 3), (2, 2), (0, 3), (1, 1)]
cliques:  0 mip: 93
C:  34.00000000000001
x(0,0) = 4.30	 x(0,1) = 26.99	 x(0,2) = 20.99	 x(0,3) = 14.30	 
x(1,0) = 8.68	 x(1,1) = 16.68	 x(1,2) = 21.68	 x(1,3) = 9.68	 
x(2,0) = 32.56	 x(2,1) = 20.01	 x(2,2) = 17.01	 x(2,3) = 8.01	 
x(3,0) = 11.00	 x(3,1) = 1.00	 x(3,2) = 20.00	 x(3,3) = 8.00	 
y(0,1,0) = 0.57	 y(1,0,0) = 0.43	 
y(0,2,0) = 0.86	 y(2,0,0) = 0.14	 
y(0,3,0) = 0.84	 y(3,0,0) = 0.16	 
y(1,2,0) = 1.00	 y(2,1,0) = -0.00	 
y(1,3,0) = 0.63	 y(3,1,0) = 0.37	 
y(2,3,0) = 0.00	 y(3,2,0) = 1.00	 
y(0,1,1) = 0.00	 y(1,0,1) = 1.00	 
y(0,2,1) = 0.00	 y(2,0,1) = 1.00	 
y(0,3,1) = 0.00	 y(3,0,1) = 1.00	 
y(1,2,1) = 0.93	 y(2,1,1) = 0.07	 
y(1,3,1) = 0.00	 y(3,1,1) = 1.00	 
y(2,3,1) = 0.00	 y(3,2,1) = 1.00	 
y(0,1,2) = 0.62	 y(1,0,2) = 0.38	 
y(0,2,2) = 0.33	 y(2,0,2) = 0.67	 
y(0,3,2) = 0.27	 y(3,0,2) = 0.73	 
y(1,2,2) = -0.00	 y(2,1,2) = 1.00	 
y(1,3,2) = 0.52	 y(3,1,2) = 0.48	 
y(2,3,2) = 0.94	 y(3,2,2) = 0.06	 
y(0,1,3) = 0.11	 y(1,0,3) = 0.89	 
y(0,2,3) = 0.18	 y(2,0,3) = 0.82	 
y(0,3,3) = 0.48	 y(3,0,3) = 0.52	 
y(1,2,3) = 0.39	 y(2,1,3) = 0.61	 
y(1,3,3) = 0.06	 y(3,1,3) = 0.94	 
y(2,3,3) = 0.60	 y(3,2,3) = 0.40	 
obj:  1.0036663185161456
erro
[(1, 2), (3, 2), (0, 0), (3, 0), (3, 1), (2, 1), (2, 2), (1, 0), (1, 1)]
cliques:  0 mip: 77
C:  34.0
x(0,0) = 4.65	 x(0,1) = 27.00	 x(0,2) = 20.81	 x(0,3) = 14.65	 
x(1,0) = 6.65	 x(1,1) = 16.23	 x(1,2) = 21.23	 x(1,3) = 7.65	 
x(2,0) = 32.28	 x(2,1) = 20.00	 x(2,2) = 16.52	 x(2,3) = 7.52	 
x(3,0) = 11.40	 x(3,1) = 1.19	 x(3,2) = 20.40	 x(3,3) = 8.19	 
y(0,1,0) = 0.13	 y(1,0,0) = 0.87	 
y(0,2,0) = 0.87	 y(2,0,0) = 0.13	 
y(0,3,0) = 0.48	 y(3,0,0) = 0.52	 
y(1,2,0) = 1.00	 y(2,1,0) = 0.00	 
y(1,3,0) = 0.70	 y(3,1,0) = 0.30	 
y(2,3,0) = 0.00	 y(3,2,0) = 1.00	 
y(0,1,1) = 0.51	 y(1,0,1) = 0.49	 
y(0,2,1) = 0.00	 y(2,0,1) = 1.00	 
y(0,3,1) = 0.00	 y(3,0,1) = 1.00	 
y(1,2,1) = 0.95	 y(2,1,1) = 0.05	 
y(1,3,1) = 0.00	 y(3,1,1) = 1.00	 
y(2,3,1) = 0.00	 y(3,2,1) = 1.00	 
y(0,1,2) = 0.59	 y(1,0,2) = 0.41	 
y(0,2,2) = 0.63	 y(2,0,2) = 0.37	 
y(0,3,2) = 0.29	 y(3,0,2) = 0.71	 
y(1,2,2) = 0.00	 y(2,1,2) = 1.00	 
y(1,3,2) = 0.57	 y(3,1,2) = 0.43	 
y(2,3,2) = 0.97	 y(3,2,2) = 0.03	 
y(0,1,3) = 0.00	 y(1,0,3) = 1.00	 
y(0,2,3) = 0.15	 y(2,0,3) = 0.85	 
y(0,3,3) = 0.19	 y(3,0,3) = 0.81	 
y(1,2,3) = 0.41	 y(2,1,3) = 0.59	 
y(1,3,3) = 0.15	 y(3,1,3) = 0.85	 
y(2,3,3) = 0.66	 y(3,2,3) = 0.34	 
obj:  1.0000000000000002
erro
[(0, 1), (1, 3), (3, 3), (3, 1), (1, 1), (2, 3), (2, 2), (0, 3), (0, 2)]
cliques:  0 mip: 0
iterações: 11 cortes cliques encontrados: 5 mip: 1025 objective:  34.0
Coin0506I Presolve 157 (-171) rows, 90 (-71) columns and 490 (-260) elements
Clp1000I sum of infeasibilities 1.79124e-08 - average 1.14092e-10, 0 fixed columns
Coin0506I Presolve 157 (0) rows, 90 (0) columns and 490 (0) elements
Clp0029I End of values pass after 90 iterations
Clp0000I Optimal - objective value 29
Clp0000I Optimal - objective value 29
Coin0511I After Postsolve, objective 29, infeasibilities - dual 0 (0), primal 0 (0)
Clp0000I Optimal - objective value 29
Clp0000I Optimal - objective value 29
Clp0000I Optimal - objective value 29
Coin0511I After Postsolve, objective 29, infeasibilities - dual 0 (0), primal 0 (0)
Clp0032I Optimal objective 29 - 0 iterations time 0.012, Presolve 0.00, Idiot 0.01
Coin3009W Conflict graph built in 0.000 seconds, density: 0.071%
